
Log started (V11.0.0) Wed Apr 16 12:10:08 2008

Tried aggregator 1 time.
Reduced MIP has 150 rows, 5001 columns, and 10050 nonzeros.
Presolve time =    0.05 sec.
Clique table members: 100.
MIP emphasis: balance optimality and feasibility.
MIP search method: dynamic search.
Parallel mode: none, using 1 thread.
Root relaxation solution time =    0.12 sec.

        Nodes                                         Cuts/
   Node  Left     Objective  IInf  Best Integer     Best Node    ItCnt     Gap

*     0+    0                         5271.0000       23.2515      714   99.56%
*     0+    0                           31.0000       23.2515      714   25.00%
      0     0       24.0000    75       31.0000      Fract: 5      724   22.58%
      0     0       24.0000    75       31.0000   Impl Bds: 1      735   22.58%
      0     0       24.0000    78       31.0000       Cuts: 7      762   22.58%

Repeating presolve.
Tried aggregator 1 time.
MIP Presolve eliminated 0 rows and 3837 columns.
MIP Presolve modified 200 coefficients.
Reduced MIP has 150 rows, 1164 columns, and 2376 nonzeros.
Tried aggregator 1 time.
Represolve time =    0.06 sec.
Clique table members: 336.
MIP emphasis: balance optimality and feasibility.
MIP search method: dynamic search.
Parallel mode: none, using 1 thread.
Root relaxation solution time =    0.03 sec.

        Nodes                                         Cuts/
   Node  Left     Objective  IInf  Best Integer     Best Node    ItCnt     Gap

      0     0       24.0000    97       31.0000       24.0000      438   22.58%
      0     2       24.0000    97       31.0000       24.0000      438   22.58%
    100   101       25.0000    67       31.0000       24.0000     1397   22.58%
    200   198       26.0000    74       31.0000       24.0000     2619   22.58%
    300   272    infeasible             31.0000       24.0000     4113   22.58%
*   350+  284                           30.0000       24.0000     5717   20.00%
    400   327       26.0219    88       30.0000       24.0000     7463   20.00%
    500   391       28.0000    38       30.0000       24.0000    10583   20.00%
*   534+  281                           29.0000       27.0000    13242    6.90%
    600   293       28.0000    34       29.0000       27.0000    14879    6.90%
*   684+  123                           28.0000       27.0000    17486    3.57%

Clique cuts applied:  3
Cover cuts applied:  68
Mixed integer rounding cuts applied:  24
Zero-half cuts applied:  7
Gomory fractional cuts applied:  14

Solution pool: 5 solutions saved.

MIP - Integer optimal solution:  Objective = 2.8000000000e+001
Solution time =    6.33 sec.  Iterations = 17898  Nodes = 698 (101)


Incumbent solution
Variable Name           Solution Value
Cmax                         28.000000
X_1_15                        1.000000
X_2_24                        1.000000
X_3_14                        1.000000
X_4_8                         1.000000
X_5_16                        1.000000
X_6_47                        1.000000
X_7_17                        1.000000
X_8_2                         1.000000
X_9_30                        1.000000
X_10_7                        1.000000
X_11_49                       1.000000
X_12_47                       1.000000
X_13_12                       1.000000
X_14_1                        1.000000
X_15_37                       1.000000
X_16_19                       1.000000
X_17_14                       1.000000
X_18_13                       1.000000
X_19_8                        1.000000
X_20_33                       1.000000
X_21_37                       1.000000
X_22_13                       1.000000
X_23_29                       1.000000
X_24_10                       1.000000
X_25_15                       1.000000
X_26_18                       1.000000
X_27_42                       1.000000
X_28_42                       1.000000
X_29_41                       1.000000
X_30_5                        1.000000
X_31_18                       1.000000
X_32_38                       1.000000
X_33_22                       1.000000
X_34_35                       1.000000
X_35_27                       1.000000
X_36_25                       1.000000
X_37_11                       1.000000
X_38_3                        1.000000
X_39_45                       1.000000
X_40_46                       1.000000
X_41_44                       1.000000
X_42_39                       1.000000
X_43_34                       1.000000
X_44_34                       1.000000
X_45_38                       1.000000
X_46_11                       1.000000
X_47_28                       1.000000
X_48_46                       1.000000
X_49_30                       1.000000
X_50_24                       1.000000
X_51_27                       1.000000
X_52_3                        1.000000
X_53_43                       1.000000
X_54_31                       1.000000
X_55_36                       1.000000
X_56_33                       1.000000
X_57_31                       1.000000
X_58_16                       1.000000
X_59_50                       1.000000
X_60_28                       1.000000
X_61_36                       1.000000
X_62_6                        1.000000
X_63_23                       1.000000
X_64_39                       1.000000
X_65_10                       1.000000
X_66_44                       1.000000
X_67_48                       1.000000
X_68_50                       1.000000
X_69_20                       1.000000
X_70_9                        1.000000
X_71_17                       1.000000
X_72_21                       1.000000
X_73_35                       1.000000
X_74_40                       1.000000
X_75_5                        1.000000
X_76_19                       1.000000
X_77_26                       1.000000
X_78_40                       1.000000
X_79_32                       1.000000
X_80_9                        1.000000
X_81_29                       1.000000
X_82_23                       1.000000
X_83_4                        1.000000
X_84_41                       1.000000
X_85_2                        1.000000
X_86_48                       1.000000
X_87_21                       1.000000
X_88_4                        1.000000
X_89_43                       1.000000
X_90_49                       1.000000
X_91_25                       1.000000
X_92_20                       1.000000
X_93_6                        1.000000
X_94_22                       1.000000
X_95_12                       1.000000
X_96_26                       1.000000
X_97_1                        1.000000
X_98_45                       1.000000
X_99_7                        1.000000
X_100_32                      1.000000
All other variables in the range 1-5001 are 0.
